NAME: PointSet_Angle_50_6
TYPE: TSP
COMMENT: Points chosen discrete uniformly at random out of ${0, \ldots, 500}^2$.
DIMENSION: 50
EDGE_WEIGHT_TYPE: EUC_2D
NODE_COORD_SECTION
1 495 225
2 243 181
3 306 83
4 400 182
5 78 159
6 339 107
7 170 33
8 153 41
9 294 46
10 75 318
11 341 86
12 342 197
13 449 14
14 100 118
15 143 468
16 421 385
17 439 410
18 65 244
19 494 466
20 172 71
21 371 10
22 178 287
23 291 77
24 328 84
25 371 403
26 402 211
27 490 490
28 408 438
29 3 254
30 55 394
31 468 222
32 278 407
33 132 89
34 397 125
35 301 69
36 443 419
37 326 368
38 205 116
39 191 33
40 447 61
41 182 95
42 18 418
43 84 173
44 356 335
45 427 157
46 228 395
47 126 252
48 301 4
49 341 197
50 376 389
EOF
